TiO2-CsSnI3tet
1.00000000000000
    9.3400000000000000    0.0000000000000000    0.0000000000000000
    0.0000000000000000    9.3400000000000000    0.0000000000000000
    0.0000000000000000    0.0000000000000000    84.861538461500000
Ti    O    Cs   Sn   I
72   144   20   18   56
Selective dynamics
Cartesian
0.000000    0.000000   26.703001  T T T
0.000000    0.000000    2.967000  T T T
0.000000    0.000000    5.934000  T T T
0.000000    0.000000    8.901000  T T T
0.000000    0.000000   11.868000  T T T
0.000000    0.000000   14.835001  T T T
0.000000    0.000000   17.802001  T T T
0.000000    0.000000   20.769001  T T T
0.000000    0.000000   23.736001  T T T
0.000000    4.670000   26.703001  T T T
0.000000    4.670000    2.967000  T T T
0.000000    4.670000    5.934000  T T T
0.000000    4.670000    8.901000  T T T
0.000000    4.670000   11.868000  T T T
0.000000    4.670000   14.835001  T T T
0.000000    4.670000   17.802001  T T T
0.000000    4.670000   20.769001  T T T
0.000000    4.670000   23.736001  T T T
4.670000    0.000000   26.703001  T T T
4.670000    0.000000    2.967000  T T T
4.670000    0.000000    5.934000  T T T
4.670000    0.000000    8.901000  T T T
4.670000    0.000000   11.868000  T T T
4.670000    0.000000   14.835001  T T T
4.670000    0.000000   17.802001  T T T
4.670000    0.000000   20.769001  T T T
4.670000    0.000000   23.736001  T T T
4.670000    4.670000   26.703001  T T T
4.670000    4.670000    2.967000  T T T
4.670000    4.670000    5.934000  T T T
4.670000    4.670000    8.901000  T T T
4.670000    4.670000   11.868000  T T T
4.670000    4.670000   14.835001  T T T
4.670000    4.670000   17.802001  T T T
4.670000    4.670000   20.769001  T T T
4.670000    4.670000   23.736001  T T T
2.335000    2.335000    1.483500  T T T
2.335000    2.335000    4.450500  T T T
2.335000    2.335000    7.417500  T T T
2.335000    2.335000   10.384500  T T T
2.335000    2.335000   13.351501  T T T
2.335000    2.335000   16.318501  T T T
2.335000    2.335000   19.285501  T T T
2.335000    2.335000   22.252501  T T T
2.335000    2.335000   25.219501  T T T
2.335000    7.005000    1.483500  T T T
2.335000    7.005000    4.450500  T T T
2.335000    7.005000    7.417500  T T T
2.335000    7.005000   10.384500  T T T
2.335000    7.005000   13.351501  T T T
2.335000    7.005000   16.318501  T T T
2.335000    7.005000   19.285501  T T T
2.335000    7.005000   22.252501  T T T
2.335000    7.005000   25.219501  T T T
7.005000    2.335000    1.483500  T T T
7.005000    2.335000    4.450500  T T T
7.005000    2.335000    7.417500  T T T
7.005000    2.335000   10.384500  T T T
7.005000    2.335000   13.351501  T T T
7.005000    2.335000   16.318501  T T T
7.005000    2.335000   19.285501  T T T
7.005000    2.335000   22.252501  T T T
7.005000    2.335000   25.219501  T T T
7.005000    7.005000    1.483500  T T T
7.005000    7.005000    4.450500  T T T
7.005000    7.005000    7.417500  T T T
7.005000    7.005000   10.384500  T T T
7.005000    7.005000   13.351501  T T T
7.005000    7.005000   16.318501  T T T
7.005000    7.005000   19.285501  T T T
7.005000    7.005000   22.252501  T T T
7.005000    7.005000   25.219501  T T T
1.429020    1.429020   26.703001  T T T
1.429020    1.429020    2.967000  T T T
1.429020    1.429020    5.934000  T T T
1.429020    1.429020    8.901000  T T T
1.429020    1.429020   11.868000  T T T
1.429020    1.429020   14.835001  T T T
1.429020    1.429020   17.802001  T T T
1.429020    1.429020   20.769001  T T T
1.429020    1.429020   23.736001  T T T
1.429020    6.099020   26.703001  T T T
1.429020    6.099020    2.967000  T T T
1.429020    6.099020    5.934000  T T T
1.429020    6.099020    8.901000  T T T
1.429020    6.099020   11.868000  T T T
1.429020    6.099020   14.835001  T T T
1.429020    6.099020   17.802001  T T T
1.429020    6.099020   20.769001  T T T
1.429020    6.099020   23.736001  T T T
6.099020    1.429020   26.703001  T T T
6.099020    1.429020    2.967000  T T T
6.099020    1.429020    5.934000  T T T
6.099020    1.429020    8.901000  T T T
6.099020    1.429020   11.868000  T T T
6.099020    1.429020   14.835001  T T T
6.099020    1.429020   17.802001  T T T
6.099020    1.429020   20.769001  T T T
6.099020    1.429020   23.736001  T T T
6.099020    6.099020   26.703001  T T T
6.099020    6.099020    2.967000  T T T
6.099020    6.099020    5.934000  T T T
6.099020    6.099020    8.901000  T T T
6.099020    6.099020   11.868000  T T T
6.099020    6.099020   14.835001  T T T
6.099020    6.099020   17.802001  T T T
6.099020    6.099020   20.769001  T T T
6.099020    6.099020   23.736001  T T T
3.240980    3.240980   26.703001  T T T
3.240980    3.240980    2.967000  T T T
3.240980    3.240980    5.934000  T T T
3.240980    3.240980    8.901000  T T T
3.240980    3.240980   11.868000  T T T
3.240980    3.240980   14.835001  T T T
3.240980    3.240980   17.802001  T T T
3.240980    3.240980   20.769001  T T T
3.240980    3.240980   23.736001  T T T
3.240980    7.910980   26.703001  T T T
3.240980    7.910980    2.967000  T T T
3.240980    7.910980    5.934000  T T T
3.240980    7.910980    8.901000  T T T
3.240980    7.910980   11.868000  T T T
3.240980    7.910980   14.835001  T T T
3.240980    7.910980   17.802001  T T T
3.240980    7.910980   20.769001  T T T
3.240980    7.910980   23.736001  T T T
7.910980    3.240980   26.703001  T T T
7.910980    3.240980    2.967000  T T T
7.910980    3.240980    5.934000  T T T
7.910980    3.240980    8.901000  T T T
7.910980    3.240980   11.868000  T T T
7.910980    3.240980   14.835001  T T T
7.910980    3.240980   17.802001  T T T
7.910980    3.240980   20.769001  T T T
7.910980    3.240980   23.736001  T T T
7.910980    7.910980   26.703001  T T T
7.910980    7.910980    2.967000  T T T
7.910980    7.910980    5.934000  T T T
7.910980    7.910980    8.901000  T T T
7.910980    7.910980   11.868000  T T T
7.910980    7.910980   14.835001  T T T
7.910980    7.910980   17.802001  T T T
7.910980    7.910980   20.769001  T T T
7.910980    7.910980   23.736001  T T T
0.905980    3.764020    1.483500  T T T
0.905980    3.764020    4.450500  T T T
0.905980    3.764020    7.417500  T T T
0.905980    3.764020   10.384500  T T T
0.905980    3.764020   13.351501  T T T
0.905980    3.764020   16.318501  T T T
0.905980    3.764020   19.285501  T T T
0.905980    3.764020   22.252501  T T T
0.905980    3.764020   25.219501  T T T
0.905980    8.434020    1.483500  T T T
0.905980    8.434020    4.450500  T T T
0.905980    8.434020    7.417500  T T T
0.905980    8.434020   10.384500  T T T
0.905980    8.434020   13.351501  T T T
0.905980    8.434020   16.318501  T T T
0.905980    8.434020   19.285501  T T T
0.905980    8.434020   22.252501  T T T
0.905980    8.434020   25.219501  T T T
5.575980    3.764020    1.483500  T T T
5.575980    3.764020    4.450500  T T T
5.575980    3.764020    7.417500  T T T
5.575980    3.764020   10.384500  T T T
5.575980    3.764020   13.351501  T T T
5.575980    3.764020   16.318501  T T T
5.575980    3.764020   19.285501  T T T
5.575980    3.764020   22.252501  T T T
5.575980    3.764020   25.219501  T T T
5.575980    8.434020    1.483500  T T T
5.575980    8.434020    4.450500  T T T
5.575980    8.434020    7.417500  T T T
5.575980    8.434020   10.384500  T T T
5.575980    8.434020   13.351501  T T T
5.575980    8.434020   16.318501  T T T
5.575980    8.434020   19.285501  T T T
5.575980    8.434020   22.252501  T T T
5.575980    8.434020   25.219501  T T T
3.764020    0.905980    1.483500  T T T
3.764020    0.905980    4.450500  T T T
3.764020    0.905980    7.417500  T T T
3.764020    0.905980   10.384500  T T T
3.764020    0.905980   13.351501  T T T
3.764020    0.905980   16.318501  T T T
3.764020    0.905980   19.285501  T T T
3.764020    0.905980   22.252501  T T T
3.764020    0.905980   25.219501  T T T
3.764020    5.575980    1.483500  T T T
3.764020    5.575980    4.450500  T T T
3.764020    5.575980    7.417500  T T T
3.764020    5.575980   10.384500  T T T
3.764020    5.575980   13.351501  T T T
3.764020    5.575980   16.318501  T T T
3.764020    5.575980   19.285501  T T T
3.764020    5.575980   22.252501  T T T
3.764020    5.575980   25.219501  T T T
8.434020    0.905980    1.483500  T T T
8.434020    0.905980    4.450500  T T T
8.434020    0.905980    7.417500  T T T
8.434020    0.905980   10.384500  T T T
8.434020    0.905980   13.351501  T T T
8.434020    0.905980   16.318501  T T T
8.434020    0.905980   19.285501  T T T
8.434020    0.905980   22.252501  T T T
8.434020    0.905980   25.219501  T T T
8.434020    5.575980    1.483500  T T T
8.434020    5.575980    4.450500  T T T
8.434020    5.575980    7.417500  T T T
8.434020    5.575980   10.384500  T T T
8.434020    5.575980   13.351501  T T T
8.434020    5.575980   16.318501  T T T
8.434020    5.575980   19.285501  T T T
8.434020    5.575980   22.252501  T T T
8.434020    5.575980   25.219501  T T T
0.000000    4.670000   29.200001  T T T
0.000000    4.670000   84.861542  T T T
0.000000    4.670000   35.384616  T T T
0.000000    4.670000   41.569232  T T T
0.000000    4.670000   47.753848  T T T
0.000000    4.670000   53.938463  T T T
0.000000    4.670000   60.123079  T T T
0.000000    4.670000   66.307695  T T T
0.000000    4.670000   72.492310  T T T
0.000000    4.670000   78.676926  T T T
4.670000    0.000000   29.200001  T T T
4.670000    0.000000   84.861542  T T T
4.670000    0.000000   35.384616  T T T
4.670000    0.000000   41.569232  T T T
4.670000    0.000000   47.753848  T T T
4.670000    0.000000   53.938463  T T T
4.670000    0.000000   60.123079  T T T
4.670000    0.000000   66.307695  T T T
4.670000    0.000000   72.492310  T T T
4.670000    0.000000   78.676926  T T T
4.670000    4.670000   32.292309  T T T
4.670000    4.670000   38.476924  T T T
4.670000    4.670000   44.661540  T T T
4.670000    4.670000   50.846156  T T T
4.670000    4.670000   57.030771  T T T
4.670000    4.670000   63.215387  T T T
4.670000    4.670000   69.400003  T T T
4.670000    4.670000   75.584618  T T T
4.670000    4.670000   81.769234  T T T
0.000000    0.000000   32.292309  T T T
0.000000    0.000000   38.476924  T T T
0.000000    0.000000   44.661540  T T T
0.000000    0.000000   50.846156  T T T
0.000000    0.000000   57.030771  T T T
0.000000    0.000000   63.215387  T T T
0.000000    0.000000   69.400003  T T T
0.000000    0.000000   75.584618  T T T
0.000000    0.000000   81.769234  T T T
7.180389    6.829612   32.292309  T T T
7.180389    6.829612   38.476924  T T T
7.180389    6.829612   44.661540  T T T
7.180389    6.829612   50.846156  T T T
7.180389    6.829612   57.030771  T T T
7.180389    6.829612   63.215387  T T T
7.180389    6.829612   69.400003  T T T
7.180389    6.829612   75.584618  T T T
7.180389    6.829612   81.769234  T T T
6.829612    2.159611   32.292309  T T T
6.829612    2.159611   38.476924  T T T
6.829612    2.159611   44.661540  T T T
6.829612    2.159611   50.846156  T T T
6.829612    2.159611   57.030771  T T T
6.829612    2.159611   63.215387  T T T
6.829612    2.159611   69.400003  T T T
6.829612    2.159611   75.584618  T T T
6.829612    2.159611   81.769234  T T T
4.670000    4.670000   29.200001  T T T
4.670000    4.670000   84.861542  T T T
4.670000    4.670000   35.384616  T T T
4.670000    4.670000   41.569232  T T T
4.670000    4.670000   47.753848  T T T
4.670000    4.670000   53.938463  T T T
4.670000    4.670000   60.123079  T T T
4.670000    4.670000   66.307695  T T T
4.670000    4.670000   72.492310  T T T
4.670000    4.670000   78.676926  T T T
0.000000    0.000000   29.200001  T T T
0.000000    0.000000   84.861542  T T T
0.000000    0.000000   35.384616  T T T
0.000000    0.000000   41.569232  T T T
0.000000    0.000000   47.753848  T T T
0.000000    0.000000   53.938463  T T T
0.000000    0.000000   60.123079  T T T
0.000000    0.000000   66.307695  T T T
0.000000    0.000000   72.492310  T T T
0.000000    0.000000   78.676926  T T T
2.159611    2.510389   32.292309  T T T
2.159611    2.510389   38.476924  T T T
2.159611    2.510389   44.661540  T T T
2.159611    2.510389   50.846156  T T T
2.159611    2.510389   57.030771  T T T
2.159611    2.510389   63.215387  T T T
2.159611    2.510389   69.400003  T T T
2.159611    2.510389   75.584618  T T T
2.159611    2.510389   81.769234  T T T
2.510389    7.180389   32.292309  T T T
2.510389    7.180389   38.476924  T T T
2.510389    7.180389   44.661540  T T T
2.510389    7.180389   50.846156  T T T
2.510389    7.180389   57.030771  T T T
2.510389    7.180389   63.215387  T T T
2.510389    7.180389   69.400003  T T T
2.510389    7.180389   75.584618  T T T
2.510389    7.180389   81.769234  T T T
